10,0	0,0	8,9	9,9	0,0	0,0	0,0	0,0	0,0	12,4
12,0	14,9	0,0	18,4	14,5	0,0	0,0	18,4	0,0	0,0
0,0	0,0	19,7	0,0	7,6	17,5	0,0	0,0	19,8	0,0
16,5	0,0	15,3	0,0	0,0	0,0	18,3	0,0	0,0	0,0
0,0	9,1	0,0	7,8	6,0	0,0	0,0	10,9	0,0	0,0
0,0	10,2	5,9	0,0	8,0	14,8	0,0	0,0	13,4	0,0
0,0	10,7	0,0	9,7	0,0	0,0	18,5	0,0	0,0	12,7
8,6	0,0	18,6	0,0	0,0	0,0	0,0	0,0	0,0	8,6
0,0	13,7	0,0	9,0	19,8	0,0	0,0	11,1	0,0	0,0
0,0	0,0	18,1	0,0	0,0	14,6	9,2	0,0	0,0	12,5
0,0	19,2	0,0	0,0	16,2	0,0	7,1	0,0	10,7	17,6
12,3	0,0	18,2	0,0	6,8	0,0	13,0	17,7	6,3	0,0
0,0	10,2	0,0	0,0	0,0	19,7	0,0	9,9	17,7	8,2
5,4	17,2	19,9	0,0	0,0	14,6	0,0	6,6	12,3	0,0
6,1	0,0	9,6	0,0	17,0	16,3	16,3	19,7	0,0	0,0
0,0	17,2	0,0	13,2	0,0	11,2	0,0	15,1	0,0	0,0
12,0	0,0	16,0	18,7	6,8	0,0	0,0	5,4	0,0	0,0
0,0	0,0	18,9	0,0	0,0	17,2	18,5	0,0	16,0	17,2
17,4	0,0	0,0	19,7	14,3	13,2	5,8	8,2	0,0	6,1
0,0	12,7	0,0	17,5	0,0	0,0	16,5	0,0	7,9	15,8
									
3,4	3,5	4,0	3,7	3,1	4,9	3,6	3,0	4,0	3,1
